(set-logic HORN)
(declare-fun assert_247_29_8_abs0 (Int Int Int Int Int) Bool)
(declare-fun assign_220_27_3_abs0 (Int Int Int Int Int) Bool)
(declare-fun assert_211_26_10_abs0 (Int Int Int Int Int) Bool)
(declare-fun assert_197_25_10_abs0 (Int Int Int Int Int) Bool)
(declare-fun while_223_23_1_abs0 (Int Int Int Int Int) Bool)
(declare-fun assign_157_22_8_abs0 (Int Int Int Int Int) Bool)
(declare-fun assign_148_20_5_abs0 (Int Int Int Int Int) Bool)
(declare-fun assign_136_18_2_abs0 (Int Int Int Int Int) Bool)
(declare-fun assign_127_17_2_abs0 (Int Int Int Int Int) Bool)
(declare-fun if_140_16_5_abs0 (Int Int Int Int Int) Bool)
(declare-fun assert_108_15_13_abs0 (Int Int Int Int Int) Bool)
(declare-fun while_151_14_1_abs0 (Int Int Int Int Int) Bool)
(declare-fun assign_68_13_8_abs0 (Int Int Int Int Int) Bool)
(declare-fun assign_62_12_1_abs0 (Int Int Int Int Int) Bool)
(declare-fun assign_53_11_1_abs0 (Int Int Int Int Int) Bool)
(declare-fun end_abs0 (Int Int Int Int Int) Bool)
(declare-fun start_abs0 (Int Int Int Int Int) Bool)
(assert (forall ((pos Int) (N Int) (i Int) (vabs_f_f Int) (a_select Int)) (start_abs0 vabs_f_f a_select pos N i)))
(assert (forall ((i Int) (N Int) (pos Int) (vabs_0_f_f Int) (a_select Int)) (=> (start_abs0 vabs_0_f_f a_select pos N i) (assign_53_11_1_abs0 vabs_0_f_f a_select pos N i))))
(assert (forall ((rnd Int) (i Int) (N Int) (pos Int) (vabs_0_f_f Int) (a_select Int)) (=> (assign_53_11_1_abs0 vabs_0_f_f a_select pos N i) (assign_62_12_1_abs0 vabs_0_f_f a_select pos rnd i))))
(assert (forall ((i Int) (N Int) (pos Int) (vabs_0_f_f Int) (a_select Int)) (=> (assign_62_12_1_abs0 vabs_0_f_f a_select pos N i) (assign_68_13_8_abs0 vabs_0_f_f a_select (- 0 1) N i))))
(assert (forall ((i Int) (N Int) (pos Int) (vabs_0_f_f Int) (a_select Int)) (=> (assign_68_13_8_abs0 vabs_0_f_f a_select pos N i) (while_151_14_1_abs0 vabs_0_f_f a_select pos N 0))))
(assert (forall ((pos Int) (N Int) (i Int) (vabs_0_f_f Int) (a_select Int)) (=> (and (while_151_14_1_abs0 vabs_0_f_f a_select pos N i) (< i N)) (assert_108_15_13_abs0 vabs_0_f_f a_select pos N i))))
(assert (forall ((pos Int) (N Int) (i Int) (vabs_0_f_f Int) (a_select Int)) (=> (and (while_151_14_1_abs0 vabs_0_f_f a_select pos N i) (not (< i N))) (assign_157_22_8_abs0 vabs_0_f_f a_select pos N i))))
(assert (forall ((k Int) (i Int) (N Int) (pos Int) (a_select Int)) (=> (and (assert_108_15_13_abs0 k a_select pos N i) (>= k 0) (< k i)) (= a_select 0))))
(assert (forall ((i Int) (N Int) (pos Int) (vabs_0_f_f Int) (a_select Int)) (=> (assert_108_15_13_abs0 vabs_0_f_f a_select pos N i) (if_140_16_5_abs0 vabs_0_f_f a_select pos N i))))
(assert (forall ((pos Int) (N Int) (i Int) (vabs_0_f_f Int) (a_select_0 Int) (a_select Int)) (=> (and (=> (= vabs_0_f_f i) (= a_select a_select_0)) (if_140_16_5_abs0 i a_select pos N i) (if_140_16_5_abs0 vabs_0_f_f a_select_0 pos N i) (not (= a_select 0))) (assign_127_17_2_abs0 vabs_0_f_f a_select_0 pos N i))))
(assert (forall ((pos Int) (N Int) (i Int) (vabs_0_f_f Int) (a_select_0 Int) (a_select Int)) (=> (and (=> (= vabs_0_f_f i) (= a_select a_select_0)) (if_140_16_5_abs0 i a_select pos N i) (if_140_16_5_abs0 vabs_0_f_f a_select_0 pos N i) (not (not (= a_select 0)))) (assign_148_20_5_abs0 vabs_0_f_f a_select_0 pos N i))))
(assert (forall ((i Int) (N Int) (pos Int) (vabs_0_f_f Int) (a_select Int)) (=> (assign_127_17_2_abs0 vabs_0_f_f a_select pos N i) (assign_136_18_2_abs0 vabs_0_f_f a_select i N i))))
(assert (forall ((i Int) (N Int) (pos Int) (vabs_0_f_f Int) (a_select Int)) (=> (assign_136_18_2_abs0 vabs_0_f_f a_select pos N i) (assign_148_20_5_abs0 vabs_0_f_f a_select pos N (+ N 2)))))
(assert (forall ((i Int) (N Int) (pos Int) (vabs_0_f_f Int) (a_select Int)) (=> (assign_148_20_5_abs0 vabs_0_f_f a_select pos N i) (while_151_14_1_abs0 vabs_0_f_f a_select pos N (+ i 1)))))
(assert (forall ((i Int) (N Int) (pos Int) (vabs_0_f_f Int) (a_select Int)) (=> (assign_157_22_8_abs0 vabs_0_f_f a_select pos N i) (while_223_23_1_abs0 vabs_0_f_f a_select pos N 0))))
(assert (forall ((pos Int) (N Int) (i Int) (vabs_0_f_f Int) (a_select Int)) (=> (and (while_223_23_1_abs0 vabs_0_f_f a_select pos N i) (< i pos)) (assert_197_25_10_abs0 vabs_0_f_f a_select pos N i))))
(assert (forall ((pos Int) (N Int) (i Int) (vabs_0_f_f Int) (a_select Int)) (=> (and (while_223_23_1_abs0 vabs_0_f_f a_select pos N i) (not (< i pos))) (assert_247_29_8_abs0 vabs_0_f_f a_select pos N i))))
(assert (forall ((k Int) (i Int) (N Int) (pos Int) (a_select Int)) (=> (and (assert_197_25_10_abs0 k a_select pos N i) (>= k 0) (< k pos)) (= a_select 0))))
(assert (forall ((i Int) (N Int) (pos Int) (vabs_0_f_f Int) (a_select Int)) (=> (assert_197_25_10_abs0 vabs_0_f_f a_select pos N i) (assert_211_26_10_abs0 vabs_0_f_f a_select pos N i))))
(assert (forall ((i Int) (N Int) (pos Int) (a_select Int)) (=> (assert_211_26_10_abs0 i a_select pos N i) (= a_select 0))))
(assert (forall ((i Int) (N Int) (pos Int) (vabs_0_f_f Int) (a_select Int)) (=> (assert_211_26_10_abs0 vabs_0_f_f a_select pos N i) (assign_220_27_3_abs0 vabs_0_f_f a_select pos N i))))
(assert (forall ((i Int) (N Int) (pos Int) (vabs_0_f_f Int) (a_select Int)) (=> (assign_220_27_3_abs0 vabs_0_f_f a_select pos N i) (while_223_23_1_abs0 vabs_0_f_f a_select pos N (+ i 1)))))
(assert (forall ((i Int) (N Int) (pos Int) (a_select Int)) (=> (assert_247_29_8_abs0 pos a_select pos N i) (or (not (= a_select 0)) (= pos (- 0 1))))))
(assert (forall ((i Int) (N Int) (pos Int) (vabs_0_f_f Int) (a_select Int)) (=> (assert_247_29_8_abs0 vabs_0_f_f a_select pos N i) (end_abs0 vabs_0_f_f a_select pos N i))))
(check-sat)